FILENAME:   /home/mcs001/s132664/testsets/IP/miplib2010/neos-957389.mps.gz
SETTINGS:   settings_final_nopeek_norelabel_extend_norestarts
TIMELIMIT:  7200
OUTPUTNAME: final_miplib_symretope_if_extended_generating_set_cpx_v802__settings_final_nopeek_norelabel_extend_norestarts__2__
BINNAME:    bin/sbcs.linux.x86_64.gnu.opt.cpx
BASENAME:   neos-957389.mps.gz
SEED:       2
@01 /home/mcs001/s132664/testsets/IP/miplib2010/neos-957389.mps.gz ===========
@02 neos-957389.mps.gz
@03 1686656600
SCIP version 8.0.2 [precision: 8 byte] [memory: block] [mode: optimized] [LP solver: CPLEX 20.1.0.0] [GitHash: 5f0473c]
Copyright (C) 2002-2022 Konrad-Zuse-Zentrum fuer Informationstechnik Berlin (ZIB)

Symretope propagation methods - (c) Jasper van Doornmalen, Christopher Hojny.
[GitHash: 2fd0484]

reading parameter file <../settings/settings_final_nopeek_norelabel_extend_norestarts.set> ...

Changed settings:
limits/time = 7200
limits/restarts = 0
misc/usesymmetry = 1
randomization/randomseedshift = 2
constraints/orbisack/sepafreq = -1
constraints/symresack/sepafreq = -1
propagating/symmetry/addsymresacks = TRUE
propagating/symmetry/detectsubgroups = FALSE
propagating/symmetry/relabelsymretopes = 0
propagating/symmetry/extendgenerators = TRUE
propagating/symmetry/ofsymcomptiming = 0
constraints/symretope/sepafreq = -1
constraints/symretope/peek = FALSE


solving problem ...

original problem has 6036 variables (6036 bin, 0 int, 0 impl, 0 cont) and 5115 constraints
presolving:
(round 1, exhaustive) 1 del vars, 1 del conss, 0 add conss, 0 chg bounds, 0 chg sides, 0 chg coeffs, 5114 upgd conss, 0 impls, 616 clqs
(round 2, medium)     489 del vars, 527 del conss, 0 add conss, 0 chg bounds, 0 chg sides, 22647 chg coeffs, 5114 upgd conss, 0 impls, 553 clqs
(round 3, fast)       763 del vars, 825 del conss, 0 add conss, 0 chg bounds, 0 chg sides, 35238 chg coeffs, 5114 upgd conss, 0 impls, 510 clqs
(round 4, fast)       918 del vars, 1040 del conss, 0 add conss, 0 chg bounds, 0 chg sides, 41508 chg coeffs, 5114 upgd conss, 0 impls, 469 clqs
(round 5, fast)       971 del vars, 1108 del conss, 0 add conss, 0 chg bounds, 0 chg sides, 43236 chg coeffs, 5114 upgd conss, 0 impls, 468 clqs
(round 6, medium)     986 del vars, 1129 del conss, 0 add conss, 0 chg bounds, 0 chg sides, 43400 chg coeffs, 5114 upgd conss, 0 impls, 461 clqs
(round 7, exhaustive) 1194 del vars, 1131 del conss, 0 add conss, 0 chg bounds, 0 chg sides, 43439 chg coeffs, 5114 upgd conss, 0 impls, 333 clqs
(round 8, fast)       1197 del vars, 3300 del conss, 0 add conss, 0 chg bounds, 0 chg sides, 43439 chg coeffs, 5114 upgd conss, 0 impls, 333 clqs
   (7.0s) probing: 1000/4846 (20.6%) - 2 fixings, 0 aggregations, 12338 implications, 0 bound changes
   (11.0s) probing: 1734/4846 (35.8%) - 12 fixings, 0 aggregations, 16937 implications, 0 bound changes
   (11.0s) probing aborted: 50/50 successive totally useless probings
(round 9, exhaustive) 1209 del vars, 3300 del conss, 0 add conss, 0 chg bounds, 0 chg sides, 43441 chg coeffs, 5114 upgd conss, 0 impls, 17219 clqs
(round 10, fast)       1209 del vars, 3312 del conss, 0 add conss, 0 chg bounds, 0 chg sides, 43446 chg coeffs, 5114 upgd conss, 0 impls, 17219 clqs
   (12.7s) probing: 2000/4846 (41.3%) - 25 fixings, 0 aggregations, 21544 implications, 0 bound changes
(round 11, exhaustive) 1234 del vars, 3312 del conss, 0 add conss, 0 chg bounds, 0 chg sides, 43450 chg coeffs, 5114 upgd conss, 0 impls, 39148 clqs
(round 12, fast)       1234 del vars, 3337 del conss, 0 add conss, 0 chg bounds, 0 chg sides, 43614 chg coeffs, 5114 upgd conss, 0 impls, 39148 clqs
   (16.5s) probing: 2650/4846 (54.7%) - 37 fixings, 0 aggregations, 39011 implications, 0 bound changes
   (16.5s) probing aborted: 50/50 successive totally useless probings
   (16.7s) symmetry computation started: requiring (bin +, int +, cont +), (fixed: bin -, int -, cont -)
   (17.1s) symmetry computation finished: 71 generators found (max: 1500, log10 of symmetry group size: 54.8)
(round 13, exhaustive) 1318 del vars, 3337 del conss, 938 add conss, 0 chg bounds, 0 chg sides, 43615 chg coeffs, 5114 upgd conss, 0 impls, 37575 clqs
(round 14, fast)       1318 del vars, 3358 del conss, 938 add conss, 0 chg bounds, 0 chg sides, 43615 chg coeffs, 5114 upgd conss, 0 impls, 37575 clqs
(round 15, medium)     1378 del vars, 3365 del conss, 939 add conss, 0 chg bounds, 1 chg sides, 43620 chg coeffs, 5114 upgd conss, 0 impls, 36727 clqs
(round 16, medium)     1427 del vars, 3365 del conss, 939 add conss, 0 chg bounds, 1 chg sides, 43620 chg coeffs, 5114 upgd conss, 0 impls, 36441 clqs
(round 17, medium)     1471 del vars, 3365 del conss, 939 add conss, 0 chg bounds, 1 chg sides, 43620 chg coeffs, 5114 upgd conss, 0 impls, 36181 clqs
(round 18, medium)     1510 del vars, 3365 del conss, 939 add conss, 0 chg bounds, 1 chg sides, 43620 chg coeffs, 5114 upgd conss, 0 impls, 35947 clqs
(round 19, medium)     1544 del vars, 3365 del conss, 939 add conss, 0 chg bounds, 1 chg sides, 43620 chg coeffs, 5114 upgd conss, 0 impls, 35739 clqs
(round 20, medium)     1573 del vars, 3365 del conss, 939 add conss, 0 chg bounds, 1 chg sides, 43620 chg coeffs, 5114 upgd conss, 0 impls, 35557 clqs
(round 21, medium)     1597 del vars, 3365 del conss, 939 add conss, 0 chg bounds, 1 chg sides, 43620 chg coeffs, 5114 upgd conss, 0 impls, 35401 clqs
(round 22, medium)     1616 del vars, 3365 del conss, 939 add conss, 0 chg bounds, 1 chg sides, 43620 chg coeffs, 5114 upgd conss, 0 impls, 35271 clqs
(round 23, medium)     1630 del vars, 3365 del conss, 939 add conss, 0 chg bounds, 1 chg sides, 43620 chg coeffs, 5114 upgd conss, 0 impls, 35167 clqs
(round 24, medium)     1642 del vars, 3365 del conss, 939 add conss, 0 chg bounds, 1 chg sides, 43620 chg coeffs, 5114 upgd conss, 0 impls, 35089 clqs
(round 25, medium)     1652 del vars, 3365 del conss, 939 add conss, 0 chg bounds, 1 chg sides, 43620 chg coeffs, 5114 upgd conss, 0 impls, 35037 clqs
(round 26, medium)     1660 del vars, 3365 del conss, 939 add conss, 0 chg bounds, 1 chg sides, 43620 chg coeffs, 5114 upgd conss, 0 impls, 35011 clqs
(round 27, medium)     1666 del vars, 3365 del conss, 939 add conss, 0 chg bounds, 1 chg sides, 43620 chg coeffs, 5114 upgd conss, 0 impls, 35011 clqs
(round 28, medium)     1671 del vars, 3365 del conss, 939 add conss, 0 chg bounds, 1 chg sides, 43620 chg coeffs, 5114 upgd conss, 0 impls, 35011 clqs
(round 29, medium)     1675 del vars, 3365 del conss, 939 add conss, 0 chg bounds, 1 chg sides, 43620 chg coeffs, 5114 upgd conss, 0 impls, 35011 clqs
   (21.3s) probing: 3000/4846 (61.9%) - 41 fixings, 0 aggregations, 110039 implications, 0 bound changes
   (30.8s) probing: 4000/4846 (82.5%) - 51 fixings, 0 aggregations, 276592 implications, 0 bound changes
   (35.8s) probing: 4532/4846 (93.5%) - 51 fixings, 0 aggregations, 365998 implications, 0 bound changes
   (35.8s) probing aborted: 1000/1000 successive useless probings
(round 30, exhaustive) 1692 del vars, 3365 del conss, 939 add conss, 0 chg bounds, 1 chg sides, 43657 chg coeffs, 5114 upgd conss, 0 impls, 350757 clqs
(round 31, fast)       1692 del vars, 3376 del conss, 939 add conss, 0 chg bounds, 1 chg sides, 43676 chg coeffs, 5114 upgd conss, 0 impls, 350757 clqs
(round 32, medium)     1692 del vars, 3376 del conss, 942 add conss, 0 chg bounds, 4 chg sides, 43682 chg coeffs, 5114 upgd conss, 0 impls, 350797 clqs
(round 33, exhaustive) 1692 del vars, 3376 del conss, 942 add conss, 0 chg bounds, 4 chg sides, 43917 chg coeffs, 5114 upgd conss, 0 impls, 350797 clqs
(round 34, exhaustive) 1692 del vars, 3376 del conss, 942 add conss, 0 chg bounds, 4 chg sides, 44112 chg coeffs, 5114 upgd conss, 0 impls, 350835 clqs
(round 35, exhaustive) 1692 del vars, 3376 del conss, 942 add conss, 0 chg bounds, 4 chg sides, 44243 chg coeffs, 5114 upgd conss, 0 impls, 350836 clqs
(round 36, medium)     1693 del vars, 3377 del conss, 945 add conss, 0 chg bounds, 7 chg sides, 44249 chg coeffs, 5114 upgd conss, 0 impls, 349850 clqs
(round 37, exhaustive) 1693 del vars, 3378 del conss, 945 add conss, 0 chg bounds, 7 chg sides, 44359 chg coeffs, 5114 upgd conss, 0 impls, 349850 clqs
(round 38, exhaustive) 1693 del vars, 3378 del conss, 945 add conss, 0 chg bounds, 7 chg sides, 44458 chg coeffs, 5114 upgd conss, 0 impls, 349850 clqs
(round 39, exhaustive) 1693 del vars, 3378 del conss, 945 add conss, 0 chg bounds, 7 chg sides, 44725 chg coeffs, 5114 upgd conss, 0 impls, 349850 clqs
   (58.0s) probing: 4632/4846 (95.6%) - 51 fixings, 0 aggregations, 376313 implications, 0 bound changes
   (58.0s) probing aborted: 1000/1000 successive useless probings
presolving (40 rounds: 40 fast, 32 medium, 13 exhaustive):
 1693 deleted vars, 3378 deleted constraints, 945 added constraints, 0 tightened bounds, 0 added holes, 7 changed sides, 44799 changed coefficients
 0 implications, 351388 cliques
presolved problem has 4350 variables (4350 bin, 0 int, 0 impl, 0 cont) and 2679 constraints
    229 constraints of type <knapsack>
    303 constraints of type <setppc>
    817 constraints of type <orbisack>
     65 constraints of type <orbitope>
     56 constraints of type <symretope>
   1209 constraints of type <logicor>
transformed objective value is always integral (scale: 0.5)
Presolving Time: 57.95

 time | node  | left  |LP iter|LP it/n|mem/heur|mdpt |vars |cons |rows |cuts |sepa|confs|strbr|  dualbound   | primalbound  |  gap   | compl. 
p58.3s|     1 |     0 |     0 |     - |  clique|   0 |4350 |2679 |1742 |   0 |  0 |   0 |   0 | 1.000000e+00 | 1.500000e+00 |  50.00%| unknown
 59.0s|     1 |     0 |     0 |     - |   289M |   0 |4350 |2708 |1742 |   0 |  0 |  30 |   0 | 1.500000e+00 | 1.500000e+00 |   0.00%| unknown

SCIP Status        : problem is solved [optimal solution found]
Solving Time (sec) : 59.00
Solving Nodes      : 1
Primal Bound       : +1.50000000000000e+00 (1 solutions)
Dual Bound         : +1.50000000000000e+00
Gap                : 0.00 %
SCIP Status        : problem is solved [optimal solution found]
Total Time         :      59.18
  solving          :      59.00
  presolving       :      57.95 (included in solving)
  reading          :       0.18
  copying          :       0.00 (0 times copied the problem)
Original Problem   :
  Problem name     : neos-957389
  Variables        : 6036 (6036 binary, 0 integer, 0 implicit integer, 0 continuous)
  Constraints      : 5115 initial, 5115 maximal
  Objective        : minimize, 6 non-zeros (abs.min = 0.5, abs.max = 0.5)
Presolved Problem  :
  Problem name     : t_neos-957389
  Variables        : 4350 (4350 binary, 0 integer, 0 implicit integer, 0 continuous)
  Constraints      : 2679 initial, 2708 maximal
  Objective        : minimize, 3 non-zeros (abs.min = 1, abs.max = 1)
  Nonzeros         : 342120 constraint, 710743 clique table
Presolvers         :   ExecTime  SetupTime  Calls  FixedVars   AggrVars   ChgTypes  ChgBounds   AddHoles    DelCons    AddCons   ChgSides   ChgCoefs
  boundshift       :       0.00       0.00      0          0          0          0          0          0          0          0          0          0
  convertinttobin  :       0.00       0.00      0          0          0          0          0          0          0          0          0          0
  domcol           :       0.64       0.00      6        204          0          0          0          0          0          0          0          0
  dualagg          :       0.00       0.00      0          0          0          0          0          0          0          0          0          0
  dualcomp         :       0.00       0.00      0          0          0          0          0          0          0          0          0          0
  dualinfer        :       0.00       0.00      0          0          0          0          0          0          0          0          0          0
  dualsparsify     :       0.14       0.00      1          0          0          0          0          0          0          0          0          0
  gateextraction   :       0.05       0.00     12          0          0          0          0          0          0          0          0          0
  implics          :       0.00       0.00     32          0          0          0          0          0          0          0          0          0
  inttobinary      :       0.00       0.00      0          0          0          0          0          0          0          0          0          0
  qpkktref         :       0.00       0.00      0          0          0          0          0          0          0          0          0          0
  redvub           :       0.00       0.00      0          0          0          0          0          0          0          0          0          0
  sparsify         :       0.09       0.00      2          0          0          0          0          0          0          0          0          0
  stuffing         :       0.00       0.00      0          0          0          0          0          0          0          0          0          0
  trivial          :       0.01       0.00     40         20          0          0          0          0          0          0          0          0
  tworowbnd        :       0.00       0.00      0          0          0          0          0          0          0          0          0          0
  dualfix          :       0.01       0.00     40          0          0          0          0          0          0          0          0          0
  genvbounds       :       0.00       0.00      0          0          0          0          0          0          0          0          0          0
  probing          :      35.08       0.00      5         51          0          0          0          0          0          0          0          0
  pseudoobj        :       0.00       0.00      0          0          0          0          0          0          0          0          0          0
  symmetry         :       0.55       0.00      1         84          0          0          0          0          0        938          0          0
  vbounds          :       0.08       0.00      5          0          0          0          0          0          0          0          0          0
  knapsack         :      19.99       0.00     82        150          0          0          0          0        171          7          7        989
  setppc           :       0.06       0.00     77         27          0          0          0          0        317          0          0          0
  linear           :       0.16       0.05      2          0          1          0          0          0          1          0          0          0
  orbisack         :       0.00       0.00      3          0          0          0          0          0          0          0          0          0
  orbitope         :       0.01       0.00     25        356          0          0          0          0          0          0          0          0
  symretope        :       0.00       0.00      3          0          0          0          0          0          0          0          0          0
  logicor          :       0.97       0.00     77        793          0          0          0          0       2889          0          0      43810
  benders          :       0.00       0.00      0          0          0          0          0          0          0          0          0          0
  components       :       0.05       0.00      1          0          0          0          0          0          0          0          0          0
  root node        :          -          -      -          1          -          -          1          -          -          -          -          -
Constraints        :     Number  MaxNumber  #Separate #Propagate    #EnfoLP    #EnfoRelax  #EnfoPS    #Check   #ResProp    Cutoffs    DomReds       Cuts    Applied      Conss   Children
  benderslp        :          0          0          0          0          0          0          0          8          0          0          0          0          0          0          0
  integral         :          0          0          0          0          0          0          0          8          0          0          0          0          0          0          0
  knapsack         :        229        229          0      21003          0          0          0          4        958          3          0          0          0          0          0
  setppc           :        303+       313          0      21002          0          0          0          4        145         57          0          0          0          0          0
  orbisack         :        817        817          0         11          0          0          0          1         29          1          0          0          0          0          0
  orbitope         :         65         65          0      13124          0          0          0          1       1361          4          0          0          0          0          0
  symretope        :         56         56          0         88          0          0          0          1          2          0          0          0          0          0          0
  logicor          :       1209+      1228          0      14104          0          0          0          1       4042          1          0          0          0          0          0
  benders          :          0          0          0          0          0          0          0          2          0          0          0          0          0          0          0
  countsols        :          0          0          0          0          0          0          0          2          0          0          0          0          0          0          0
  components       :          0          0          0          0          0          0          0          0          0          0          0          0          0          0          0
Constraint Timings :  TotalTime  SetupTime   Separate  Propagate     EnfoLP     EnfoPS     EnfoRelax   Check    ResProp    SB-Prop
  benderslp        :       0.00       0.00       0.00       0.00       0.00       0.00       0.00       0.00       0.00       0.00
  integral         :       0.00       0.00       0.00       0.00       0.00       0.00       0.00       0.00       0.00       0.00
  knapsack         :      23.17       0.00       0.02      23.14       0.00       0.00       0.00       0.01       0.01       0.00
  setppc           :       0.26       0.00       0.00       0.26       0.00       0.00       0.00       0.00       0.00       0.00
  orbisack         :       0.08       0.00       0.00       0.08       0.00       0.00       0.00       0.00       0.00       0.00
  orbitope         :       2.81       0.00       0.00       2.80       0.00       0.00       0.00       0.00       0.00       0.00
  symretope        :       0.01       0.00       0.00       0.01       0.00       0.00       0.00       0.00       0.00       0.00
  logicor          :       0.68       0.00       0.00       0.67       0.00       0.00       0.00       0.00       0.00       0.00
  benders          :       0.00       0.00       0.00       0.00       0.00       0.00       0.00       0.00       0.00       0.00
  countsols        :       0.00       0.00       0.00       0.00       0.00       0.00       0.00       0.00       0.00       0.00
  components       :       0.00       0.00       0.00       0.00       0.00       0.00       0.00       0.00       0.00       0.00
Propagators        : #Propagate   #ResProp    Cutoffs    DomReds
  dualfix          :          2          0          0          0
  genvbounds       :          0          0          0          0
  nlobbt           :          0          0          0          0
  obbt             :          0          0          0          0
  probing          :          0          0          0          0
  pseudoobj        :          2          0          1          0
  redcost          :          0          0          0          0
  rootredcost      :          0          0          0          0
  symmetry         :          0          0          0          0
  vbounds          :        240          0          0          0
Propagator Timings :  TotalTime  SetupTime   Presolve  Propagate    ResProp    SB-Prop
  dualfix          :       0.01       0.00       0.01       0.00       0.00       0.00
  genvbounds       :       0.01       0.00       0.00       0.01       0.00       0.00
  nlobbt           :       0.00       0.00       0.00       0.00       0.00       0.00
  obbt             :       0.00       0.00       0.00       0.00       0.00       0.00
  probing          :      35.08       0.00      35.08       0.00       0.00       0.00
  pseudoobj        :       0.12       0.00       0.00       0.12       0.00       0.00
  redcost          :       0.00       0.00       0.00       0.00       0.00       0.00
  rootredcost      :       0.00       0.00       0.00       0.00       0.00       0.00
  symmetry         :       0.55       0.00       0.55       0.00       0.00       0.00
  vbounds          :       0.08       0.00       0.08       0.01       0.00       0.00
Orbital fixing     :
  vars fixed to 0  :          0
  vars fixed to 1  :          0
Conflict Analysis  :       Time      Calls    Success    DomReds  Conflicts   Literals    Reconvs ReconvLits   Dualrays   Nonzeros   LP Iters   (pool size: [10000,10000])
  propagation      :       0.01         60         11          -         42       98.4          0        0.0          -          -          -
  infeasible LP    :       0.00          0          0          -          0        0.0          0        0.0          0        0.0          0
  bound exceed. LP :       0.00          0          0          -          0        0.0          0        0.0          0        0.0          0
  strong branching :       0.00          0          0          -          0        0.0          0        0.0          -          -          0
  pseudo solution  :       0.00          0          0          -          0        0.0          0        0.0          -          -          -
  applied globally :       0.02          -          -          0         30       53.0          -          -          0          -          -
  applied locally  :          -          -          -          0          0        0.0          -          -          0          -          -
Separators         :   ExecTime  SetupTime      Calls  RootCalls    Cutoffs    DomReds  FoundCuts ViaPoolAdd  DirectAdd    Applied ViaPoolApp  DirectApp      Conss
  cut pool         :       0.00          -          0          0          -          -          0          0          -          -          -          -          -    (maximal pool size:          0)
  aggregation      :       0.00       0.00          0          0          0          0          0          0          0          0          0          0          0
  > cmir           :          -          -          -          -          -          -          -          0          0          0          0          0          -
  > flowcover      :          -          -          -          -          -          -          -          0          0          0          0          0          -
  > knapsackcover  :          -          -          -          -          -          -          -          0          0          0          0          0          -
  cgmip            :       0.00       0.00          0          0          0          0          0          0          0          0          0          0          0
  clique           :       0.00       0.00          0          0          0          0          0          0          0          0          0          0          0
  closecuts        :       0.00       0.00          0          0          0          0          0          0          0          0          0          0          0
  convexproj       :       0.00       0.00          0          0          0          0          0          0          0          0          0          0          0
  disjunctive      :       0.00       0.00          0          0          0          0          0          0          0          0          0          0          0
  eccuts           :       0.00       0.00          0          0          0          0          0          0          0          0          0          0          0
  gauge            :       0.00       0.00          0          0          0          0          0          0          0          0          0          0          0
  gomory           :       0.00       0.00          0          0          0          0          0          0          0          0          0          0          0
  > gomorymi       :          -          -          -          -          -          -          -          0          0          0          0          0          -
  > strongcg       :          -          -          -          -          -          -          -          0          0          0          0          0          -
  impliedbounds    :       0.00       0.00          0          0          0          0          0          0          0          0          0          0          0
  interminor       :       0.00       0.00          0          0          0          0          0          0          0          0          0          0          0
  intobj           :       0.00       0.00          0          0          0          0          0          0          0          0          0          0          0
  mcf              :       0.00       0.00          0          0          0          0          0          0          0          0          0          0          0
  minor            :       0.00       0.00          0          0          0          0          0          0          0          0          0          0          0
  mixing           :       0.00       0.00          0          0          0          0          0          0          0          0          0          0          0
  oddcycle         :       0.00       0.00          0          0          0          0          0          0          0          0          0          0          0
  rapidlearning    :       0.00       0.00          0          0          0          0          0          0          0          0          0          0          0
  rlt              :       0.00       0.00          0          0          0          0          0          0          0          0          0          0          0
  zerohalf         :       0.00       0.00          0          0          0          0          0          0          0          0          0          0          0
Cutselectors       :   ExecTime  SetupTime      Calls  RootCalls   Selected     Forced   Filtered  RootSelec   RootForc   RootFilt 
  hybrid           :       0.00       0.00          0          0          0          0          0          0          0          0
Pricers            :   ExecTime  SetupTime      Calls       Vars
  problem variables:       0.00          -          0          0
Branching Rules    :   ExecTime  SetupTime   BranchLP  BranchExt   BranchPS    Cutoffs    DomReds       Cuts      Conss   Children
  allfullstrong    :       0.00       0.00          0          0          0          0          0          0          0          0
  cloud            :       0.00       0.00          0          0          0          0          0          0          0          0
  distribution     :       0.00       0.00          0          0          0          0          0          0          0          0
  fullstrong       :       0.00       0.00          0          0          0          0          0          0          0          0
  inference        :       0.00       0.00          0          0          0          0          0          0          0          0
  leastinf         :       0.00       0.00          0          0          0          0          0          0          0          0
  lookahead        :       0.00       0.00          0          0          0          0          0          0          0          0
  mostinf          :       0.00       0.00          0          0          0          0          0          0          0          0
  multaggr         :       0.00       0.00          0          0          0          0          0          0          0          0
  nodereopt        :       0.00       0.00          0          0          0          0          0          0          0          0
  pscost           :       0.00       0.00          0          0          0          0          0          0          0          0
  random           :       0.00       0.00          0          0          0          0          0          0          0          0
  relpscost        :       0.00       0.00          0          0          0          0          0          0          0          0
  vanillafullstrong:       0.00       0.00          0          0          0          0          0          0          0          0
Primal Heuristics  :   ExecTime  SetupTime      Calls      Found       Best
  LP solutions     :       0.00          -          -          0          0
  relax solutions  :       0.00          -          -          0          0
  pseudo solutions :       0.00          -          -          0          0
  strong branching :       0.00          -          -          0          0
  actconsdiving    :       0.00       0.00          0          0          0
  adaptivediving   :       0.00       0.00          0          0          0
  alns             :       0.00       0.00          0          0          0
  bound            :       0.00       0.00          0          0          0
  clique           :       0.17       0.00          1          1          1
  coefdiving       :       0.00       0.00          0          0          0
  completesol      :       0.00       0.00          0          0          0
  conflictdiving   :       0.00       0.00          0          0          0
  crossover        :       0.00       0.00          0          0          0
  dins             :       0.00       0.00          0          0          0
  distributiondivin:       0.00       0.00          0          0          0
  dps              :       0.00       0.00          0          0          0
  dualval          :       0.00       0.00          0          0          0
  farkasdiving     :       0.00       0.00          0          0          0
  feaspump         :       0.00       0.00          0          0          0
  fixandinfer      :       0.00       0.00          0          0          0
  fracdiving       :       0.00       0.00          0          0          0
  gins             :       0.00       0.00          0          0          0
  guideddiving     :       0.00       0.00          0          0          0
  indicator        :       0.00       0.00          0          0          0
  intdiving        :       0.00       0.00          0          0          0
  intshifting      :       0.00       0.00          0          0          0
  linesearchdiving :       0.00       0.00          0          0          0
  localbranching   :       0.00       0.00          0          0          0
  locks            :       0.07       0.00          1          0          0
  lpface           :       0.00       0.00          0          0          0
  mpec             :       0.00       0.00          0          0          0
  multistart       :       0.00       0.00          0          0          0
  mutation         :       0.00       0.00          0          0          0
  nlpdiving        :       0.00       0.00          0          0          0
  objpscostdiving  :       0.00       0.00          0          0          0
  octane           :       0.00       0.00          0          0          0
  ofins            :       0.00       0.00          0          0          0
  oneopt           :       0.00       0.00          1          0          0
  padm             :       0.00       0.00          0          0          0
  proximity        :       0.00       0.00          0          0          0
  pscostdiving     :       0.00       0.00          0          0          0
  randrounding     :       0.00       0.00          0          0          0
  rens             :       0.00       0.00          0          0          0
  reoptsols        :       0.00       0.00          0          0          0
  repair           :       0.00       0.00          0          0          0
  rins             :       0.00       0.00          0          0          0
  rootsoldiving    :       0.00       0.00          0          0          0
  rounding         :       0.00       0.00          0          0          0
  shiftandpropagate:       0.00       0.00          0          0          0
  shifting         :       0.00       0.00          0          0          0
  simplerounding   :       0.00       0.00          0          0          0
  subnlp           :       0.00       0.00          0          0          0
  trivial          :       0.01       0.00          2          0          0
  trivialnegation  :       0.00       0.00          0          0          0
  trustregion      :       0.00       0.00          0          0          0
  trysol           :       0.00       0.00          0          0          0
  twoopt           :       0.00       0.00          0          0          0
  undercover       :       0.00       0.00          0          0          0
  vbounds          :       0.60       0.00          1          0          0
  veclendiving     :       0.00       0.00          0          0          0
  zeroobj          :       0.00       0.00          0          0          0
  zirounding       :       0.00       0.00          0          0          0
  other solutions  :          -          -          -          0          -
LP                 :       Time      Calls Iterations  Iter/call   Iter/sec  Time-0-It Calls-0-It    ItLimit
  primal LP        :       0.00          0          0       0.00          -       0.00          0
  dual LP          :       0.00          0          0       0.00          -       0.00          0
  lex dual LP      :       0.00          0          0       0.00          -
  barrier LP       :       0.00          0          0       0.00          -       0.00          0
  resolve instable :       0.00          0          0       0.00          -
  diving/probing LP:       0.01          0          0       0.00          -
  strong branching :       0.00          0          0       0.00          -          -          -          0
    (at root node) :          -          0          0       0.00          -
  conflict analysis:       0.00          0          0       0.00          -
B&B Tree           :
  number of runs   :          1
  nodes            :          1 (0 internal, 1 leaves)
  feasible leaves  :          0
  infeas. leaves   :          1
  objective leaves :          0
  nodes (total)    :          1 (0 internal, 1 leaves)
  nodes left       :          0
  max depth        :          0
  max depth (total):          0
  backtracks       :          0 (0.0%)
  early backtracks :          0 (0.0%)
  nodes exc. ref.  :          0 (0.0%)
  delayed cutoffs  :          0
  repropagations   :          0 (0 domain reductions, 0 cutoffs)
  avg switch length:       2.00
  switching time   :       0.00
Root Node          :
  First LP value   :          -
  First LP Iters   :          0
  First LP Time    :       0.00
  Final Dual Bound : +1.50000000000000e+00
  Final Root Iters :          0
  Root LP Estimate :                     -
Solution           :
  Solutions found  :          1 (1 improvements)
  First Solution   : +1.50000000000000e+00   (in run 1, after 1 nodes, 58.32 seconds, depth 56, found by <clique>)
  Gap First Sol.   :      50.00 %
  Gap Last Sol.    :      50.00 %
  Primal Bound     : +1.50000000000000e+00   (in run 1, after 1 nodes, 58.32 seconds, depth 56, found by <clique>)
  Dual Bound       : +1.50000000000000e+00
  Gap              :       0.00 %
Integrals          :      Total       Avg%
  primal-dual      :    5854.83      99.23
  primal-ref       :          -          - (not evaluated)
  dual-ref         :          -          - (not evaluated)
written solution information to file <results/final_miplib_symretope_if_extended_generating_set_cpx_v802__settings_final_nopeek_norelabel_extend_norestarts__2__neos-957389.mps.gz.sol>
@04 1686656659
